(set-logic ALL)
(declare-fun i1 () Int)
(declare-fun it732 () Int)
(declare-fun it15 () Int)
(declare-fun it733 () Int)
(declare-fun it734 () Int)
(declare-fun it14 () Int)
(declare-fun it735 () Int)
(declare-fun it13 () Int)
(declare-fun bt821 () Bool)
(declare-fun bt822 () Bool)
(declare-fun bt823 () Bool)
(declare-fun bt824 () Bool)
(declare-fun it17 () Int)
(declare-fun it16 () Int)
(declare-fun it18 () Int)
(declare-fun bt25 () Bool)
(declare-fun bt28 () Bool)
(declare-fun bt26 () Bool)
(declare-fun bt27 () Bool)
(declare-fun it739 () Int)
(declare-fun it740 () Int)
(declare-fun it741 () Int)
(declare-fun it742 () Int)
(declare-fun bt825 () Bool)
(declare-fun bt826 () Bool)
(declare-fun bt827 () Bool)
(declare-fun bt828 () Bool)
(declare-fun bt830 () Bool)
(declare-fun bt829 () Bool)
(declare-fun it743 () Int)
(declare-fun bt831 () Bool)
(declare-fun it744 () Int)
(declare-fun it745 () Int)
(declare-fun bt832 () Bool)
(declare-fun it746 () Int)
(declare-fun it747 () Int)
(declare-fun it748 () Int)
(declare-fun it749 () Int)
(declare-fun bt833 () Bool)
(declare-fun bt834 () Bool)
(declare-fun bt835 () Bool)
(declare-fun bt836 () Bool)
(declare-fun it751 () Int)
(declare-fun bt837 () Bool)
(declare-fun it752 () Int)
(declare-fun bt839 () Bool)
(declare-fun it750 () Int)
(declare-fun bt838 () Bool)
(declare-fun bt840 () Bool)
(declare-fun it754 () Int)
(declare-fun it755 () Int)
(declare-fun it756 () Int)
(declare-fun it757 () Int)
(declare-fun bt841 () Bool)
(declare-fun bt842 () Bool)
(declare-fun bt843 () Bool)
(declare-fun bt844 () Bool)
(declare-fun it155 () Int)
(assert (= (+ i1 (- 1)) 0))
(assert (= (+ it732 (- 2)) 0))
(assert (= (+ it733 (* it15 (- 1))) 0))
(assert (= (+ (* it14 (- 1)) it734) 0))
(assert (= (+ (* it13 (- 1)) it735) 0))
(assert (or (not bt821) (and false bt821)))
(assert (or bt822 (and false (not bt822))))
(assert (or (not bt823) (and false bt823)))
(assert (or (not bt824) (and false bt824)))
(assert (and bt27
     (not bt26)
     (not bt28)
     (not bt25)
     (= (+ it18 (- 1)) 0)
     (not bt823)
     (= (+ (* it16 (- 1)) it735) 0)
     (not bt821)
     (= (+ it732 (- 2)) 0)
     (= (+ (* it17 (- 1)) it734) 0)
     bt822
     (not bt824)))
(assert (= (+ it739 (- 2)) 0))
(assert (= (+ (* it18 (- 1)) it740) 0))
(assert (= (+ it741 (* it17 (- 1))) 0))
(assert (= (+ (* it16 (- 1)) it742) 0))
(assert (or (and (not bt27) (not bt825)) (and bt27 bt825)))
(assert (or (and (not bt28) (not bt826)) (and bt28 bt826)))
(assert (or (and bt26 bt827) (and (not bt26) (not bt827))))
(assert (or (and bt25 bt828) (and (not bt25) (not bt828))))
(assert (and (> (+ it742 (* it740 (- 1))) 0)
     (not bt832)
     (not bt827)
     (not bt828)
     (= (+ (* it745 (- 1)) it742) 0)
     bt825
     (not bt826)
     (= (+ (* it744 (- 1)) it741) 0)
     (not bt831)
     (= (+ (* it743 (- 1)) it740) 0)
     (= (+ it739 (- 2)) 0)
     bt829
     bt830))
(assert (= (+ it746 (- 2)) 0))
(assert (= (+ (* it743 (- 1)) it747) 0))
(assert (= (+ (* it744 (- 1)) it748) 0))
(assert (= (+ (* it745 (- 1)) it749) 0))
(assert (or (and (not bt830) (not bt833)) (and bt833 bt830)))
(assert (or (and (not bt829) (not bt834)) (and bt834 bt829)))
(assert (or (and bt835 bt831) (and (not bt831) (not bt835))))
(assert (or (and (not bt832) (not bt836)) (and bt836 bt832)))
(assert (and (not bt835)
     (not bt840)
     (not bt838)
     (= (+ it746 (- 2)) 0)
     bt834
     (> it748 0)
     (= (+ (* it750 (- 1)) it747) 0)
     bt839
     (= (+ (* it752 (- 1)) it749) 0)
     bt833
     (not bt837)
     (= (+ (* it751 (- 1)) it748) 0)
     (not bt836)))
(assert (= (+ it754 (- 2)) 0))
(assert (= (+ it755 (* it750 (- 1))) 0))
(assert (= (+ (* it751 (- 1)) it756) 0))
(assert (= (+ it757 (* it752 (- 1))) 0))
(assert (or (and (not bt838) (not bt841)) (and bt838 bt841)))
(assert (or (and bt837 bt842) (and (not bt842) (not bt837))))
(assert (or (and bt839 bt843) (and (not bt843) (not bt839))))
(assert (or (and (not bt840) (not bt844)) (and bt844 bt840)))
(assert (let ((a!1 (+ (+ 0 it757)
              (* (exp 2 (+ it155 (- 1))) (+ 0 it755) (+ 0 (- 1))))))
  (and (not bt844)
       (not bt843)
       (> it756 0)
       (>= (+ it754 (- 2)) 0)
       (>= (+ (* it754 (- 1)) 2) 0)
       (> a!1 (+ 0 0))
       bt841
       (>= (+ it155 (- 1)) 0)
       (not bt842)
       (> (+ it757 (* it755 (- 1))) 0))))
(check-sat)
